unsat
(:max-memory          18.09
 :memory              17.92
 :nlsat-conflicts     7
 :nlsat-learned-added 6
 :nlsat-propagations  24
 :nlsat-stages        8
 :num-allocs          5973
 :rlimit-count        2491
 :time                0.00
 :total-time          0.01)
